p cnf 963 2785
-1 5 0 
1 872 0 
-7 -8 0 
-97 -98 -103 0 
-97 98 103 0 
-98 -27 -99 0 
-98 27 99 0 
-99 -100 -102 0 
-99 100 102 0 
-100 -101 0 
-102 88 0 
-102 90 0 
-103 104 107 0 
-104 105 106 0 
-105 25 0 
-105 87 0 
-106 87 0 
-106 91 0 
-8 -9 0 
-107 25 0 
-107 91 0 
-108 -109 0 
-109 -110 -115 0 
-109 110 115 0 
-110 -29 -111 0 
-110 29 111 0 
-111 -112 -114 0 
-111 112 114 0 
-112 -113 0 
-114 100 0 
-114 102 0 
-115 116 119 0 
-116 117 118 0 
-117 99 0 
-117 27 0 
-118 99 0 
-118 103 0 
-119 103 0 
-119 27 0 
-120 -121 0 
-121 -122 -127 0 
-121 122 127 0 
-122 -31 -123 0 
-122 31 123 0 
-123 -124 -126 0 
-123 124 126 0 
-124 -125 0 
-126 112 0 
-126 114 0 
-10 -11 34 0 
-10 11 782 0 
-127 128 131 0 
-128 129 130 0 
-129 111 0 
-129 29 0 
-130 111 0 
-130 115 0 
-131 115 0 
-131 29 0 
-132 -133 0 
-133 -134 -139 0 
-133 134 139 0 
-134 -33 -135 0 
-134 33 135 0 
-135 -136 -138 0 
-135 136 138 0 
-136 -137 0 
-11 12 0 
-11 32 0 
-138 124 0 
-138 126 0 
-139 140 143 0 
-140 141 142 0 
-141 123 0 
-141 31 0 
-142 123 0 
-142 127 0 
-143 127 0 
-143 31 0 
-144 -145 238 0 
-144 145 708 0 
-145 146 0 
-145 226 0 
-146 147 0 
-146 214 0 
-12 13 0 
-12 30 0 
-147 148 0 
-147 202 0 
-148 149 0 
-148 190 0 
-149 150 0 
-149 178 0 
-150 151 0 
-150 166 0 
-151 152 0 
-151 158 0 
-152 153 0 
-153 154 0 
-154 -19 -155 0 
-154 19 155 0 
-155 -156 0 
-156 -157 0 
-13 14 0 
-13 28 0 
-158 159 0 
-159 -160 -165 0 
-159 160 165 0 
-160 -21 -161 0 
-160 21 161 0 
-161 -162 -164 0 
-161 162 164 0 
-162 -163 0 
-164 156 0 
-165 155 0 
-165 19 0 
-166 167 0 
-14 15 0 
-14 26 0 
-167 -168 -173 0 
-167 168 173 0 
-168 -23 -169 0 
-168 23 169 0 
-169 -170 -172 0 
-169 170 172 0 
-170 -171 0 
-172 162 0 
-172 164 0 
-173 174 177 0 
-174 175 176 0 
-175 161 0 
-175 21 0 
-176 161 0 
-176 165 0 
-15 16 0 
-15 24 0 
-177 165 0 
-177 21 0 
-178 179 0 
-179 -180 -185 0 
-179 180 185 0 
-180 -25 -181 0 
-180 25 181 0 
-181 -182 -184 0 
-181 182 184 0 
-182 -183 0 
-184 170 0 
-184 172 0 
-185 186 189 0 
-186 187 188 0 
-16 17 0 
-16 22 0 
-187 169 0 
-187 23 0 
-188 169 0 
-188 173 0 
-189 173 0 
-189 23 0 
-190 191 0 
-191 -192 -197 0 
-191 192 197 0 
-192 -27 -193 0 
-192 27 193 0 
-193 -194 -196 0 
-193 194 196 0 
-194 -195 0 
-196 182 0 
-196 184 0 
-1 -2 0 
-17 18 0 
-17 20 0 
-197 198 201 0 
-198 199 200 0 
-199 181 0 
-199 25 0 
-200 181 0 
-200 185 0 
-201 185 0 
-201 25 0 
-202 203 0 
-203 -204 -209 0 
-203 204 209 0 
-204 -29 -205 0 
-204 29 205 0 
-205 -206 -208 0 
-205 206 208 0 
-206 -207 0 
-18 -19 0 
-208 194 0 
-208 196 0 
-209 210 213 0 
-210 211 212 0 
-211 193 0 
-211 27 0 
-212 193 0 
-212 197 0 
-213 197 0 
-213 27 0 
-214 215 0 
-215 -216 -221 0 
-215 216 221 0 
-216 -31 -217 0 
-216 31 217 0 
-217 -218 -220 0 
-217 218 220 0 
-218 -219 0 
-220 206 0 
-220 208 0 
-221 222 225 0 
-222 223 224 0 
-223 205 0 
-223 29 0 
-224 205 0 
-224 209 0 
-225 209 0 
-225 29 0 
-226 227 0 
-20 -21 0 
-227 -228 -233 0 
-227 228 233 0 
-228 -33 -229 0 
-228 33 229 0 
-229 -230 -232 0 
-229 230 232 0 
-230 -231 0 
-232 218 0 
-232 220 0 
-233 234 237 0 
-234 235 236 0 
-235 217 0 
-235 31 0 
-236 217 0 
-236 221 0 
-237 221 0 
-237 31 0 
-238 -239 240 0 
-238 239 654 0 
-239 -43 0 
-240 -241 242 0 
-240 241 571 0 
-241 -38 0 
-242 -243 258 0 
-242 243 528 0 
-243 244 0 
-243 257 0 
-244 245 0 
-244 256 0 
-245 246 0 
-245 255 0 
-246 247 0 
-246 254 0 
-22 -23 0 
-247 248 0 
-247 253 0 
-248 249 0 
-248 252 0 
-249 250 0 
-249 251 0 
-250 -63 0 
-251 -69 0 
-252 -77 0 
-253 -89 0 
-254 -101 0 
-255 -113 0 
-256 -125 0 
-257 -137 0 
-258 -259 265 0 
-258 259 527 0 
-259 -260 0 
-260 261 0 
-261 -38 -262 0 
-261 38 262 0 
-262 -263 0 
-263 -264 0 
-265 -266 270 0 
-265 266 526 0 
-266 267 0 
-24 -25 0 
-267 -268 0 
-268 -269 0 
-270 -271 274 0 
-270 271 525 0 
-271 -272 0 
-272 273 0 
-273 -43 -267 0 
-273 43 267 0 
-274 -275 368 0 
-274 275 525 0 
-275 276 0 
-275 356 0 
-276 277 0 
-276 344 0 
-277 278 0 
-277 332 0 
-278 279 0 
-278 320 0 
-279 280 0 
-279 308 0 
-280 281 0 
-280 296 0 
-281 282 0 
-281 288 0 
-282 -283 0 
-283 284 0 
-284 -63 -285 0 
-284 63 285 0 
-285 -286 0 
-286 -287 0 
-26 -27 0 
-288 -289 0 
-289 -290 -295 0 
-289 290 295 0 
-290 -69 -291 0 
-290 69 291 0 
-291 -292 -294 0 
-291 292 294 0 
-292 -293 0 
-294 286 0 
-295 285 0 
-295 63 0 
-296 -297 0 
-2 -3 0 
-297 -298 -303 0 
-297 298 303 0 
-298 -77 -299 0 
-298 77 299 0 
-299 -300 -302 0 
-299 300 302 0 
-300 -301 0 
-302 292 0 
-302 294 0 
-303 304 307 0 
-304 305 306 0 
-305 291 0 
-305 69 0 
-306 291 0 
-306 295 0 
-28 -29 0 
-307 295 0 
-307 69 0 
-308 -309 0 
-309 -310 -315 0 
-309 310 315 0 
-310 -89 -311 0 
-310 89 311 0 
-311 -312 -314 0 
-311 312 314 0 
-312 -313 0 
-314 300 0 
-314 302 0 
-315 316 319 0 
-316 317 318 0 
-317 299 0 
-317 77 0 
-318 299 0 
-318 303 0 
-319 303 0 
-319 77 0 
-320 -321 0 
-321 -322 -327 0 
-321 322 327 0 
-322 -101 -323 0 
-322 101 323 0 
-323 -324 -326 0 
-323 324 326 0 
-324 -325 0 
-326 312 0 
-326 314 0 
-30 -31 0 
-327 328 331 0 
-328 329 330 0 
-329 311 0 
-329 89 0 
-330 311 0 
-330 315 0 
-331 315 0 
-331 89 0 
-332 -333 0 
-333 -334 -339 0 
-333 334 339 0 
-334 -113 -335 0 
-334 113 335 0 
-335 -336 -338 0 
-335 336 338 0 
-336 -337 0 
-338 324 0 
-338 326 0 
-339 340 343 0 
-340 341 342 0 
-341 101 0 
-341 323 0 
-342 323 0 
-342 327 0 
-343 101 0 
-343 327 0 
-344 -345 0 
-345 -346 -351 0 
-345 346 351 0 
-346 -125 -347 0 
-346 125 347 0 
-32 -33 0 
-347 -348 -350 0 
-347 348 350 0 
-348 -349 0 
-350 336 0 
-350 338 0 
-351 352 355 0 
-352 353 354 0 
-353 113 0 
-353 335 0 
-354 335 0 
-354 339 0 
-355 113 0 
-355 339 0 
-356 -357 0 
-357 -358 -363 0 
-357 358 363 0 
-358 -137 -359 0 
-358 137 359 0 
-359 -360 -362 0 
-359 360 362 0 
-360 -361 0 
-362 348 0 
-362 350 0 
-363 364 367 0 
-364 365 366 0 
-365 125 0 
-365 347 0 
-366 347 0 
-366 351 0 
-34 -35 41 0 
-34 35 781 0 
-367 125 0 
-367 351 0 
-368 369 462 0 
-369 370 0 
-369 450 0 
-370 371 0 
-370 438 0 
-371 372 0 
-371 426 0 
-372 373 0 
-372 414 0 
-373 374 0 
-373 402 0 
-374 375 0 
-374 390 0 
-375 376 0 
-375 382 0 
-376 377 0 
-35 -36 0 
-377 378 0 
-378 -63 -379 0 
-378 63 379 0 
-379 -380 0 
-380 -381 0 
-382 383 0 
-383 -384 -389 0 
-383 384 389 0 
-384 -69 -385 0 
-384 69 385 0 
-385 -386 -388 0 
-385 386 388 0 
-386 -387 0 
-36 37 0 
-388 380 0 
-389 379 0 
-389 63 0 
-390 391 0 
-391 -392 -397 0 
-391 392 397 0 
-392 -77 -393 0 
-392 77 393 0 
-393 -394 -396 0 
-393 394 396 0 
-394 -395 0 
-396 386 0 
-396 388 0 
-3 -4 0 
-37 -2 -38 0 
-37 2 38 0 
-397 398 401 0 
-398 399 400 0 
-399 385 0 
-399 69 0 
-400 385 0 
-400 389 0 
-401 389 0 
-401 69 0 
-402 403 0 
-403 -404 -409 0 
-403 404 409 0 
-404 -89 -405 0 
-404 89 405 0 
-405 -406 -408 0 
-405 406 408 0 
-406 -407 0 
-38 -39 0 
-408 394 0 
-408 396 0 
-409 410 413 0 
-410 411 412 0 
-411 393 0 
-411 77 0 
-412 393 0 
-412 397 0 
-413 397 0 
-413 77 0 
-414 415 0 
-415 -416 -421 0 
-415 416 421 0 
-416 -101 -417 0 
-416 101 417 0 
-39 -40 0 
-417 -418 -420 0 
-417 418 420 0 
-418 -419 0 
-420 406 0 
-420 408 0 
-421 422 425 0 
-422 423 424 0 
-423 405 0 
-423 89 0 
-424 405 0 
-424 409 0 
-425 409 0 
-425 89 0 
-426 427 0 
-427 -428 -433 0 
-427 428 433 0 
-428 -113 -429 0 
-428 113 429 0 
-429 -430 -432 0 
-429 430 432 0 
-430 -431 0 
-432 418 0 
-432 420 0 
-433 434 437 0 
-434 435 436 0 
-435 101 0 
-435 417 0 
-436 417 0 
-436 421 0 
-41 -42 46 0 
-41 42 780 0 
-437 101 0 
-437 421 0 
-438 439 0 
-439 -440 -445 0 
-439 440 445 0 
-440 -125 -441 0 
-440 125 441 0 
-441 -442 -444 0 
-441 442 444 0 
-442 -443 0 
-444 430 0 
-444 432 0 
-445 446 449 0 
-446 447 448 0 
-42 43 0 
-447 113 0 
-447 429 0 
-448 429 0 
-448 433 0 
-449 113 0 
-449 433 0 
-450 451 0 
-451 -452 -457 0 
-451 452 457 0 
-452 -137 -453 0 
-452 137 453 0 
-453 -454 -456 0 
-453 454 456 0 
-454 -455 0 
-456 442 0 
-456 444 0 
-43 -44 0 
-457 458 461 0 
-458 459 460 0 
-459 125 0 
-459 441 0 
-460 441 0 
-460 445 0 
-461 125 0 
-461 445 0 
-462 463 0 
-463 464 0 
-463 517 0 
-464 465 0 
-464 509 0 
-465 466 0 
-465 501 0 
-466 467 0 
-466 493 0 
-44 -45 0 
-467 468 0 
-467 485 0 
-468 469 0 
-468 477 0 
-469 470 0 
-469 473 0 
-470 -471 0 
-471 472 0 
-472 -157 -379 0 
-472 157 379 0 
-473 -474 0 
-474 -475 -476 0 
-474 475 476 0 
-475 -163 -385 0 
-475 163 385 0 
-476 157 0 
-476 379 0 
-477 -478 0 
-478 -479 -480 0 
-478 479 480 0 
-479 -171 -393 0 
-479 171 393 0 
-480 481 484 0 
-481 482 483 0 
-482 163 0 
-482 385 0 
-483 385 0 
-483 476 0 
-484 163 0 
-484 476 0 
-485 -486 0 
-486 -487 -488 0 
-486 487 488 0 
-46 -47 50 0 
-46 47 779 0 
-487 -183 -405 0 
-487 183 405 0 
-488 489 492 0 
-489 490 491 0 
-490 171 0 
-490 393 0 
-491 393 0 
-491 480 0 
-492 171 0 
-492 480 0 
-493 -494 0 
-494 -495 -496 0 
-494 495 496 0 
-495 -195 -417 0 
-495 195 417 0 
-496 497 500 0 
-47 -48 0 
-497 498 499 0 
-498 183 0 
-498 405 0 
-499 405 0 
-499 488 0 
-500 183 0 
-500 488 0 
-501 -502 0 
-502 -503 -504 0 
-502 503 504 0 
-503 -207 -429 0 
-503 207 429 0 
-504 505 508 0 
-505 506 507 0 
-506 195 0 
-506 417 0 
-48 49 0 
-507 417 0 
-507 496 0 
-508 195 0 
-508 496 0 
-509 -510 0 
-510 -511 -512 0 
-510 511 512 0 
-511 -219 -441 0 
-511 219 441 0 
-512 513 516 0 
-513 514 515 0 
-514 207 0 
-514 429 0 
-515 429 0 
-515 504 0 
-516 207 0 
-516 504 0 
-49 -7 -43 0 
-49 7 43 0 
-517 -518 0 
-518 -519 -520 0 
-518 519 520 0 
-519 -231 -453 0 
-519 231 453 0 
-520 521 524 0 
-521 522 523 0 
-522 219 0 
-522 441 0 
-523 441 0 
-523 512 0 
-524 219 0 
-524 512 0 
-525 369 0 
-526 -275 462 0 
-526 275 0 
-50 -51 144 0 
-50 51 779 0 
-527 -266 525 0 
-527 266 0 
-528 -529 544 0 
-528 529 566 0 
-529 530 0 
-529 543 0 
-530 531 0 
-530 542 0 
-531 532 0 
-531 541 0 
-532 533 0 
-532 540 0 
-533 534 0 
-533 539 0 
-534 535 0 
-534 538 0 
-535 536 0 
-535 537 0 
-536 63 0 
-51 132 0 
-51 52 0 
-537 69 0 
-538 77 0 
-539 89 0 
-540 101 0 
-541 113 0 
-542 125 0 
-543 137 0 
-544 -259 545 0 
-544 259 564 0 
-545 -271 546 0 
-545 271 0 
-546 -547 555 0 
-546 547 526 0 
-52 120 0 
-52 53 0 
-547 356 0 
-547 548 0 
-548 344 0 
-548 549 0 
-549 332 0 
-549 550 0 
-550 320 0 
-550 551 0 
-551 308 0 
-551 552 0 
-552 296 0 
-552 553 0 
-553 288 0 
-553 554 0 
-554 283 0 
-555 556 0 
-556 517 0 
-556 557 0 
-53 108 0 
-53 54 0 
-557 509 0 
-557 558 0 
-558 501 0 
-558 559 0 
-559 493 0 
-559 560 0 
-560 485 0 
-560 561 0 
-561 477 0 
-561 562 0 
-562 473 0 
-562 563 0 
-563 471 0 
-564 -271 565 0 
-564 271 0 
-565 -547 555 0 
-565 547 0 
-566 -259 567 0 
-566 259 569 0 
-54 55 0 
-54 96 0 
-567 -271 568 0 
-567 271 0 
-568 -547 525 0 
-568 547 526 0 
-569 -271 570 0 
-569 271 0 
-570 -547 525 0 
-570 547 0 
-571 -243 572 0 
-571 243 649 0 
-572 -573 574 0 
-572 573 575 0 
-573 260 0 
-574 -271 526 0 
-574 271 0 
-575 -266 576 0 
-575 266 574 0 
-576 -271 577 0 
-576 271 648 0 
-55 56 0 
-55 84 0 
-577 -578 274 0 
-577 578 526 0 
-578 579 0 
-578 639 0 
-579 580 0 
-579 630 0 
-580 581 0 
-580 621 0 
-581 582 0 
-581 612 0 
-582 583 0 
-582 603 0 
-583 584 0 
-583 594 0 
-584 585 0 
-584 589 0 
-585 -586 0 
-586 587 0 
-56 57 0 
-56 72 0 
-587 -588 -285 0 
-587 588 285 0 
-589 -590 0 
-590 -591 -593 0 
-590 591 593 0 
-591 -592 -291 0 
-591 592 291 0 
-593 285 0 
-593 588 0 
-594 -595 0 
-595 -596 -598 0 
-595 596 598 0 
-596 -597 -299 0 
-596 597 299 0 
-57 58 0 
-57 64 0 
-598 599 602 0 
-599 600 601 0 
-600 291 0 
-600 592 0 
-601 291 0 
-601 593 0 
-602 592 0 
-602 593 0 
-603 -604 0 
-604 -605 -607 0 
-604 605 607 0 
-605 -606 -311 0 
-605 606 311 0 
-58 -59 0 
-607 608 611 0 
-608 609 610 0 
-609 299 0 
-609 597 0 
-610 299 0 
-610 598 0 
-611 597 0 
-611 598 0 
-612 -613 0 
-613 -614 -616 0 
-613 614 616 0 
-614 -615 -323 0 
-614 615 323 0 
-616 617 620 0 
-59 60 0 
-617 618 619 0 
-618 311 0 
-618 606 0 
-619 311 0 
-619 607 0 
-620 606 0 
-620 607 0 
-621 -622 0 
-622 -623 -625 0 
-622 623 625 0 
-623 -624 -335 0 
-623 624 335 0 
-625 626 629 0 
-626 627 628 0 
-60 -19 -61 0 
-60 19 61 0 
-627 323 0 
-627 615 0 
-628 323 0 
-628 616 0 
-629 615 0 
-629 616 0 
-630 -631 0 
-631 -632 -634 0 
-631 632 634 0 
-632 -633 -347 0 
-632 633 347 0 
-634 635 638 0 
-635 636 637 0 
-636 335 0 
-636 624 0 
-61 -62 0 
-637 335 0 
-637 625 0 
-638 624 0 
-638 625 0 
-639 -640 0 
-640 -641 -643 0 
-640 641 643 0 
-641 -642 -359 0 
-641 642 359 0 
-643 644 647 0 
-644 645 646 0 
-645 347 0 
-645 633 0 
-646 347 0 
-646 634 0 
-62 -63 0 
-647 633 0 
-647 634 0 
-648 -578 525 0 
-648 578 0 
-649 -529 650 0 
-649 529 653 0 
-650 -573 651 0 
-650 573 545 0 
-651 -271 652 0 
-651 271 0 
-652 -547 0 
-652 547 526 0 
-653 -573 651 0 
-653 573 567 0 
-654 -241 655 0 
-654 241 699 0 
-655 -529 656 0 
-655 529 680 0 
-656 -259 657 0 
-656 259 679 0 
-657 -266 658 0 
-657 266 675 0 
-658 -271 526 0 
-658 271 659 0 
-659 -275 660 0 
-659 275 0 
-660 -661 0 
-660 661 462 0 
-661 662 0 
-661 674 0 
-662 663 0 
-662 673 0 
-663 664 0 
-663 672 0 
-664 665 0 
-664 671 0 
-665 666 0 
-665 670 0 
-666 667 0 
-666 669 0 
-64 -65 0 
-667 563 0 
-667 668 0 
-668 474 0 
-669 478 0 
-670 486 0 
-671 494 0 
-672 502 0 
-673 510 0 
-674 518 0 
-675 -271 676 0 
-675 271 678 0 
-676 -275 677 0 
-676 275 678 0 
-65 -66 -71 0 
-65 66 71 0 
-677 661 462 0 
-678 661 0 
-679 -266 0 
-679 266 678 0 
-680 -259 681 0 
-680 259 697 0 
-681 -266 682 0 
-681 266 574 0 
-682 -683 525 0 
-682 683 526 0 
-683 684 0 
-683 696 0 
-684 685 0 
-684 695 0 
-685 686 0 
-685 694 0 
-686 687 0 
-686 693 0 
-66 -21 -67 0 
-66 21 67 0 
-687 688 0 
-687 692 0 
-688 689 0 
-688 691 0 
-689 554 0 
-689 690 0 
-690 289 0 
-691 297 0 
-692 309 0 
-693 321 0 
-694 333 0 
-695 345 0 
-696 357 0 
-67 -68 -70 0 
-67 68 70 0 
-697 -266 698 0 
-697 266 0 
-698 -683 525 0 
-698 683 0 
-699 -529 700 0 
-699 529 705 0 
-700 -573 574 0 
-700 573 701 0 
-701 -266 574 0 
-701 266 702 0 
-702 -271 703 0 
-702 271 704 0 
-703 -578 676 0 
-703 578 526 0 
-704 -578 678 0 
-704 578 0 
-705 -573 574 0 
-705 573 706 0 
-706 -266 707 0 
-706 266 574 0 
-68 -69 0 
-707 -271 682 0 
-707 271 698 0 
-708 -709 238 0 
-708 709 0 
-709 710 0 
-709 770 0 
-710 711 0 
-710 761 0 
-711 712 0 
-711 752 0 
-712 713 0 
-712 743 0 
-713 714 0 
-713 734 0 
-714 715 0 
-714 725 0 
-715 716 0 
-715 720 0 
-716 -717 0 
-717 718 0 
-718 -719 -155 0 
-718 719 155 0 
-720 -721 0 
-721 -722 -724 0 
-721 722 724 0 
-722 -723 -161 0 
-722 723 161 0 
-724 155 0 
-724 719 0 
-725 -726 0 
-726 -727 -729 0 
-726 727 729 0 
-70 62 0 
-727 -728 -169 0 
-727 728 169 0 
-729 730 733 0 
-730 731 732 0 
-731 161 0 
-731 723 0 
-732 161 0 
-732 724 0 
-733 723 0 
-733 724 0 
-734 -735 0 
-735 -736 -738 0 
-735 736 738 0 
-736 -737 -181 0 
-736 737 181 0 
-71 19 0 
-71 61 0 
-738 739 742 0 
-739 740 741 0 
-740 169 0 
-740 728 0 
-741 169 0 
-741 729 0 
-742 728 0 
-742 729 0 
-743 -744 0 
-744 -745 -747 0 
-744 745 747 0 
-745 -746 -193 0 
-745 746 193 0 
-72 -73 0 
-747 748 751 0 
-748 749 750 0 
-749 181 0 
-749 737 0 
-750 181 0 
-750 738 0 
-751 737 0 
-751 738 0 
-752 -753 0 
-753 -754 -756 0 
-753 754 756 0 
-754 -755 -205 0 
-754 755 205 0 
-756 757 760 0 
-73 -74 -79 0 
-73 74 79 0 
-757 758 759 0 
-758 193 0 
-758 746 0 
-759 193 0 
-759 747 0 
-760 746 0 
-760 747 0 
-761 -762 0 
-762 -763 -765 0 
-762 763 765 0 
-763 -764 -217 0 
-763 764 217 0 
-765 766 769 0 
-766 767 768 0 
-74 -23 -75 0 
-74 23 75 0 
-767 205 0 
-767 755 0 
-768 205 0 
-768 756 0 
-769 755 0 
-769 756 0 
-770 -771 0 
-771 -772 -774 0 
-771 772 774 0 
-772 -773 -229 0 
-772 773 229 0 
-774 775 778 0 
-775 776 777 0 
-776 217 0 
-776 764 0 
-75 -76 -78 0 
-75 76 78 0 
-777 217 0 
-777 765 0 
-778 764 0 
-778 765 0 
-779 -145 238 0 
-779 145 0 
-780 -51 708 0 
-780 51 0 
-781 -42 779 0 
-781 42 0 
-782 -783 798 0 
-782 783 820 0 
-783 784 0 
-783 797 0 
-784 785 0 
-784 796 0 
-785 786 0 
-785 795 0 
-786 787 0 
-786 794 0 
-76 -77 0 
-787 788 0 
-787 793 0 
-788 789 0 
-788 792 0 
-789 790 0 
-789 791 0 
-790 19 0 
-791 21 0 
-792 23 0 
-793 25 0 
-794 27 0 
-795 29 0 
-796 31 0 
-5 -6 10 0 
-5 6 825 0 
-797 33 0 
-798 -35 799 0 
-798 35 818 0 
-799 -47 800 0 
-799 47 0 
-800 -801 809 0 
-800 801 780 0 
-801 132 0 
-801 802 0 
-802 120 0 
-802 803 0 
-803 108 0 
-803 804 0 
-804 805 0 
-804 96 0 
-805 806 0 
-805 84 0 
-806 72 0 
-806 807 0 
-78 68 0 
-78 70 0 
-807 64 0 
-807 808 0 
-808 59 0 
-809 -810 238 0 
-809 810 0 
-810 770 0 
-810 811 0 
-811 761 0 
-811 812 0 
-812 752 0 
-812 813 0 
-813 743 0 
-813 814 0 
-814 734 0 
-814 815 0 
-815 725 0 
-815 816 0 
-816 720 0 
-816 817 0 
-79 80 83 0 
-817 717 0 
-818 -47 819 0 
-818 47 0 
-819 -801 809 0 
-819 801 0 
-820 -35 821 0 
-820 35 823 0 
-821 -47 822 0 
-821 47 0 
-822 -801 50 0 
-822 801 780 0 
-823 -47 824 0 
-823 47 0 
-824 -801 779 0 
-824 801 0 
-825 -783 826 0 
-825 783 850 0 
-826 -35 827 0 
-826 35 849 0 
-80 81 82 0 
-827 -42 828 0 
-827 42 845 0 
-828 -47 780 0 
-828 47 829 0 
-829 -51 830 0 
-829 51 0 
-830 -831 0 
-830 831 708 0 
-831 832 0 
-831 844 0 
-832 833 0 
-832 843 0 
-833 834 0 
-833 842 0 
-834 835 0 
-834 841 0 
-835 836 0 
-835 840 0 
-836 837 0 
-836 839 0 
-81 21 0 
-81 67 0 
-837 817 0 
-837 838 0 
-838 721 0 
-839 726 0 
-840 735 0 
-841 744 0 
-842 753 0 
-843 762 0 
-844 771 0 
-845 -47 846 0 
-845 47 848 0 
-846 -51 847 0 
-846 51 848 0 
-82 67 0 
-82 71 0 
-847 -831 238 0 
-847 831 708 0 
-848 -831 238 0 
-848 831 0 
-849 -42 0 
-849 42 848 0 
-850 -35 851 0 
-850 35 870 0 
-851 -42 852 0 
-851 42 869 0 
-852 -47 853 0 
-852 47 868 0 
-853 -854 50 0 
-853 854 780 0 
-854 855 0 
-854 867 0 
-855 856 0 
-855 866 0 
-856 857 0 
-856 865 0 
-83 21 0 
-83 71 0 
-857 858 0 
-857 864 0 
-858 859 0 
-858 863 0 
-859 860 0 
-859 862 0 
-860 808 0 
-860 861 0 
-861 65 0 
-862 73 0 
-863 85 0 
-864 97 0 
-865 109 0 
-866 121 0 
-84 -85 0 
-867 133 0 
-868 -854 779 0 
-868 854 780 0 
-869 -47 780 0 
-869 47 0 
-870 -42 871 0 
-870 42 0 
-871 -854 779 0 
-871 854 0 
-872 -6 873 0 
-872 6 955 0 
-873 -11 874 0 
-873 11 950 0 
-874 -875 869 0 
-874 875 876 0 
-875 36 0 
-876 -42 877 0 
-876 42 869 0 
-85 -86 -91 0 
-85 86 91 0 
-877 -47 878 0 
-877 47 949 0 
-878 -879 50 0 
-878 879 780 0 
-879 880 0 
-879 940 0 
-880 881 0 
-880 931 0 
-881 882 0 
-881 922 0 
-882 883 0 
-882 913 0 
-883 884 0 
-883 904 0 
-884 885 0 
-884 895 0 
-885 886 0 
-885 890 0 
-886 -887 0 
-86 -25 -87 0 
-86 25 87 0 
-887 888 0 
-888 -889 -61 0 
-888 889 61 0 
-890 -891 0 
-891 -892 -894 0 
-891 892 894 0 
-892 -893 -67 0 
-892 893 67 0 
-894 61 0 
-894 889 0 
-895 -896 0 
-896 -897 -899 0 
-896 897 899 0 
-6 -7 0 
-87 -88 -90 0 
-87 88 90 0 
-897 -898 -75 0 
-897 898 75 0 
-899 900 903 0 
-900 901 902 0 
-901 67 0 
-901 893 0 
-902 67 0 
-902 894 0 
-903 893 0 
-903 894 0 
-904 -905 0 
-905 -906 -908 0 
-905 906 908 0 
-906 -907 -87 0 
-906 907 87 0 
-88 -89 0 
-908 909 912 0 
-909 910 911 0 
-910 75 0 
-910 898 0 
-911 75 0 
-911 899 0 
-912 898 0 
-912 899 0 
-913 -914 0 
-914 -915 -917 0 
-914 915 917 0 
-915 -916 -99 0 
-915 916 99 0 
-917 918 921 0 
-918 919 920 0 
-919 87 0 
-919 907 0 
-920 87 0 
-920 908 0 
-921 907 0 
-921 908 0 
-922 -923 0 
-923 -924 -926 0 
-923 924 926 0 
-924 -925 -111 0 
-924 925 111 0 
-926 927 930 0 
-90 76 0 
-90 78 0 
-927 928 929 0 
-928 99 0 
-928 916 0 
-929 99 0 
-929 917 0 
-930 916 0 
-930 917 0 
-931 -932 0 
-932 -933 -935 0 
-932 933 935 0 
-933 -934 -123 0 
-933 934 123 0 
-935 936 939 0 
-936 937 938 0 
-91 92 95 0 
-937 111 0 
-937 925 0 
-938 111 0 
-938 926 0 
-939 925 0 
-939 926 0 
-940 -941 0 
-941 -942 -944 0 
-941 942 944 0 
-942 -943 -135 0 
-942 943 135 0 
-944 945 948 0 
-945 946 947 0 
-946 123 0 
-946 934 0 
-92 93 94 0 
-947 123 0 
-947 935 0 
-948 934 0 
-948 935 0 
-949 -879 779 0 
-949 879 0 
-950 -783 951 0 
-950 783 954 0 
-951 -875 952 0 
-951 875 799 0 
-952 -47 953 0 
-952 47 0 
-953 -801 0 
-953 801 780 0 
-954 -875 952 0 
-954 875 821 0 
-955 -783 956 0 
-955 783 961 0 
-956 -875 869 0 
-956 875 957 0 
-93 23 0 
-93 75 0 
-957 -42 869 0 
-957 42 958 0 
-958 -47 959 0 
-958 47 960 0 
-959 -879 846 0 
-959 879 780 0 
-960 -879 848 0 
-960 879 0 
-961 -875 869 0 
-961 875 962 0 
-962 -42 963 0 
-962 42 869 0 
-963 -47 853 0 
-963 47 871 0 
-94 75 0 
-94 79 0 
-95 23 0 
-95 79 0 
-96 -97 0 
7 8 0 
97 -98 103 0 
97 -103 98 0 
98 -99 27 0 
98 -27 99 0 
99 -100 102 0 
99 -102 100 0 
100 101 0 
102 -88 -90 0 
103 -104 0 
103 -107 0 
104 -105 0 
104 -106 0 
105 -25 -87 0 
106 -87 -91 0 
8 9 0 
107 -25 -91 0 
108 109 0 
109 -110 115 0 
109 -115 110 0 
110 -111 29 0 
110 -29 111 0 
111 -112 114 0 
111 -114 112 0 
112 113 0 
114 -100 -102 0 
115 -116 0 
115 -119 0 
116 -117 0 
116 -118 0 
117 -27 -99 0 
118 -99 -103 0 
119 -27 -103 0 
120 121 0 
121 -122 127 0 
121 -127 122 0 
122 -123 31 0 
122 -31 123 0 
123 -124 126 0 
123 -126 124 0 
124 125 0 
126 -112 -114 0 
10 -11 -34 0 
10 -34 -782 0 
10 11 -782 0 
127 -128 0 
127 -131 0 
128 -129 0 
128 -130 0 
129 -29 -111 0 
130 -111 -115 0 
131 -29 -115 0 
132 133 0 
133 -134 139 0 
133 -139 134 0 
134 -135 33 0 
134 -33 135 0 
135 -136 138 0 
135 -138 136 0 
136 137 0 
11 -12 -32 0 
138 -124 -126 0 
139 -140 0 
139 -143 0 
140 -141 0 
140 -142 0 
141 -31 -123 0 
142 -123 -127 0 
143 -31 -127 0 
144 -145 -238 0 
144 -238 -708 0 
144 145 -708 0 
145 -146 -226 0 
146 -147 -214 0 
12 -13 -30 0 
147 -148 -202 0 
148 -149 -190 0 
149 -150 -178 0 
150 -151 -166 0 
151 -152 -158 0 
152 -153 0 
153 -154 0 
154 -155 19 0 
154 -19 155 0 
155 156 0 
156 157 0 
13 -14 -28 0 
158 -159 0 
159 -160 165 0 
159 -165 160 0 
160 -161 21 0 
160 -21 161 0 
161 -162 164 0 
161 -164 162 0 
162 163 0 
164 -156 0 
165 -19 -155 0 
166 -167 0 
14 -15 -26 0 
167 -168 173 0 
167 -173 168 0 
168 -169 23 0 
168 -23 169 0 
169 -170 172 0 
169 -172 170 0 
170 171 0 
172 -162 -164 0 
173 -174 0 
173 -177 0 
174 -175 0 
174 -176 0 
175 -21 -161 0 
176 -161 -165 0 
15 -16 -24 0 
177 -21 -165 0 
178 -179 0 
179 -180 185 0 
179 -185 180 0 
180 -181 25 0 
180 -25 181 0 
181 -182 184 0 
181 -184 182 0 
182 183 0 
184 -170 -172 0 
185 -186 0 
185 -189 0 
186 -187 0 
186 -188 0 
16 -17 -22 0 
187 -23 -169 0 
188 -169 -173 0 
189 -23 -173 0 
190 -191 0 
191 -192 197 0 
191 -197 192 0 
192 -193 27 0 
192 -27 193 0 
193 -194 196 0 
193 -196 194 0 
194 195 0 
196 -182 -184 0 
1 2 0 
17 -18 -20 0 
197 -198 0 
197 -201 0 
198 -199 0 
198 -200 0 
199 -25 -181 0 
200 -181 -185 0 
201 -25 -185 0 
202 -203 0 
203 -204 209 0 
203 -209 204 0 
204 -205 29 0 
204 -29 205 0 
205 -206 208 0 
205 -208 206 0 
206 207 0 
18 19 0 
208 -194 -196 0 
209 -210 0 
209 -213 0 
210 -211 0 
210 -212 0 
211 -27 -193 0 
212 -193 -197 0 
213 -27 -197 0 
214 -215 0 
215 -216 221 0 
215 -221 216 0 
216 -217 31 0 
216 -31 217 0 
217 -218 220 0 
217 -220 218 0 
218 219 0 
220 -206 -208 0 
221 -222 0 
221 -225 0 
222 -223 0 
222 -224 0 
223 -29 -205 0 
224 -205 -209 0 
225 -29 -209 0 
226 -227 0 
20 21 0 
227 -228 233 0 
227 -233 228 0 
228 -229 33 0 
228 -33 229 0 
229 -230 232 0 
229 -232 230 0 
230 231 0 
232 -218 -220 0 
233 -234 0 
233 -237 0 
234 -235 0 
234 -236 0 
235 -31 -217 0 
236 -217 -221 0 
237 -31 -221 0 
238 -239 -240 0 
238 -240 -654 0 
238 239 -654 0 
239 43 0 
240 -241 -242 0 
240 -242 -571 0 
240 241 -571 0 
241 38 0 
242 -243 -258 0 
242 -258 -528 0 
242 243 -528 0 
243 -244 -257 0 
244 -245 -256 0 
245 -246 -255 0 
246 -247 -254 0 
22 23 0 
247 -248 -253 0 
248 -249 -252 0 
249 -250 -251 0 
250 63 0 
251 69 0 
252 77 0 
253 89 0 
254 101 0 
255 113 0 
256 125 0 
257 137 0 
258 -259 -265 0 
258 -265 -527 0 
258 259 -527 0 
259 260 0 
260 -261 0 
261 -262 38 0 
261 -38 262 0 
262 263 0 
263 264 0 
265 -266 -270 0 
265 -270 -526 0 
265 266 -526 0 
266 -267 0 
24 25 0 
267 268 0 
268 269 0 
270 -271 -274 0 
270 -274 -525 0 
270 271 -525 0 
271 272 0 
272 -273 0 
273 -267 43 0 
273 -43 267 0 
274 -275 -368 0 
274 -368 -525 0 
274 275 -525 0 
275 -276 -356 0 
276 -277 -344 0 
277 -278 -332 0 
278 -279 -320 0 
279 -280 -308 0 
280 -281 -296 0 
281 -282 -288 0 
282 283 0 
283 -284 0 
284 -285 63 0 
284 -63 285 0 
285 286 0 
286 287 0 
26 27 0 
288 289 0 
289 -290 295 0 
289 -295 290 0 
290 -291 69 0 
290 -69 291 0 
291 -292 294 0 
291 -294 292 0 
292 293 0 
294 -286 0 
295 -63 -285 0 
296 297 0 
2 3 0 
297 -298 303 0 
297 -303 298 0 
298 -299 77 0 
298 -77 299 0 
299 -300 302 0 
299 -302 300 0 
300 301 0 
302 -292 -294 0 
303 -304 0 
303 -307 0 
304 -305 0 
304 -306 0 
305 -69 -291 0 
306 -291 -295 0 
28 29 0 
307 -69 -295 0 
308 309 0 
309 -310 315 0 
309 -315 310 0 
310 -311 89 0 
310 -89 311 0 
311 -312 314 0 
311 -314 312 0 
312 313 0 
314 -300 -302 0 
315 -316 0 
315 -319 0 
316 -317 0 
316 -318 0 
317 -77 -299 0 
318 -299 -303 0 
319 -77 -303 0 
320 321 0 
321 -322 327 0 
321 -327 322 0 
322 -101 323 0 
322 -323 101 0 
323 -324 326 0 
323 -326 324 0 
324 325 0 
326 -312 -314 0 
30 31 0 
327 -328 0 
327 -331 0 
328 -329 0 
328 -330 0 
329 -89 -311 0 
330 -311 -315 0 
331 -89 -315 0 
332 333 0 
333 -334 339 0 
333 -339 334 0 
334 -113 335 0 
334 -335 113 0 
335 -336 338 0 
335 -338 336 0 
336 337 0 
338 -324 -326 0 
339 -340 0 
339 -343 0 
340 -341 0 
340 -342 0 
341 -101 -323 0 
342 -323 -327 0 
343 -101 -327 0 
344 345 0 
345 -346 351 0 
345 -351 346 0 
346 -125 347 0 
346 -347 125 0 
32 33 0 
347 -348 350 0 
347 -350 348 0 
348 349 0 
350 -336 -338 0 
351 -352 0 
351 -355 0 
352 -353 0 
352 -354 0 
353 -113 -335 0 
354 -335 -339 0 
355 -113 -339 0 
356 357 0 
357 -358 363 0 
357 -363 358 0 
358 -137 359 0 
358 -359 137 0 
359 -360 362 0 
359 -362 360 0 
360 361 0 
362 -348 -350 0 
363 -364 0 
363 -367 0 
364 -365 0 
364 -366 0 
365 -125 -347 0 
366 -347 -351 0 
34 -35 -41 0 
34 -41 -781 0 
34 35 -781 0 
367 -125 -351 0 
368 -369 0 
368 -462 0 
368 369 -462 0 
369 -370 -450 0 
370 -371 -438 0 
371 -372 -426 0 
372 -373 -414 0 
373 -374 -402 0 
374 -375 -390 0 
375 -376 -382 0 
376 -377 0 
35 36 0 
377 -378 0 
378 -379 63 0 
378 -63 379 0 
379 380 0 
380 381 0 
382 -383 0 
383 -384 389 0 
383 -389 384 0 
384 -385 69 0 
384 -69 385 0 
385 -386 388 0 
385 -388 386 0 
386 387 0 
36 -37 0 
388 -380 0 
389 -63 -379 0 
390 -391 0 
391 -392 397 0 
391 -397 392 0 
392 -393 77 0 
392 -77 393 0 
393 -394 396 0 
393 -396 394 0 
394 395 0 
396 -386 -388 0 
3 4 0 
37 -2 38 0 
37 -38 2 0 
397 -398 0 
397 -401 0 
398 -399 0 
398 -400 0 
399 -69 -385 0 
400 -385 -389 0 
401 -69 -389 0 
402 -403 0 
403 -404 409 0 
403 -409 404 0 
404 -405 89 0 
404 -89 405 0 
405 -406 408 0 
405 -408 406 0 
406 407 0 
38 39 0 
408 -394 -396 0 
409 -410 0 
409 -413 0 
410 -411 0 
410 -412 0 
411 -77 -393 0 
412 -393 -397 0 
413 -77 -397 0 
414 -415 0 
415 -416 421 0 
415 -421 416 0 
416 -101 417 0 
416 -417 101 0 
39 40 0 
417 -418 420 0 
417 -420 418 0 
418 419 0 
420 -406 -408 0 
421 -422 0 
421 -425 0 
422 -423 0 
422 -424 0 
423 -89 -405 0 
424 -405 -409 0 
425 -89 -409 0 
426 -427 0 
427 -428 433 0 
427 -433 428 0 
428 -113 429 0 
428 -429 113 0 
429 -430 432 0 
429 -432 430 0 
430 431 0 
432 -418 -420 0 
433 -434 0 
433 -437 0 
434 -435 0 
434 -436 0 
435 -101 -417 0 
436 -417 -421 0 
41 -42 -46 0 
41 -46 -780 0 
41 42 -780 0 
437 -101 -421 0 
438 -439 0 
439 -440 445 0 
439 -445 440 0 
440 -125 441 0 
440 -441 125 0 
441 -442 444 0 
441 -444 442 0 
442 443 0 
444 -430 -432 0 
445 -446 0 
445 -449 0 
446 -447 0 
446 -448 0 
42 -43 0 
447 -113 -429 0 
448 -429 -433 0 
449 -113 -433 0 
450 -451 0 
451 -452 457 0 
451 -457 452 0 
452 -137 453 0 
452 -453 137 0 
453 -454 456 0 
453 -456 454 0 
454 455 0 
456 -442 -444 0 
43 44 0 
457 -458 0 
457 -461 0 
458 -459 0 
458 -460 0 
459 -125 -441 0 
460 -441 -445 0 
461 -125 -445 0 
462 -463 0 
463 -464 -517 0 
464 -465 -509 0 
465 -466 -501 0 
466 -467 -493 0 
44 45 0 
467 -468 -485 0 
468 -469 -477 0 
469 -470 -473 0 
470 471 0 
471 -472 0 
472 -157 379 0 
472 -379 157 0 
473 474 0 
474 -475 476 0 
474 -476 475 0 
475 -163 385 0 
475 -385 163 0 
476 -157 -379 0 
477 478 0 
478 -479 480 0 
478 -480 479 0 
479 -171 393 0 
479 -393 171 0 
480 -481 0 
480 -484 0 
481 -482 0 
481 -483 0 
482 -163 -385 0 
483 -385 -476 0 
484 -163 -476 0 
485 486 0 
486 -487 488 0 
486 -488 487 0 
46 -47 -50 0 
46 -50 -779 0 
46 47 -779 0 
487 -183 405 0 
487 -405 183 0 
488 -489 0 
488 -492 0 
489 -490 0 
489 -491 0 
490 -171 -393 0 
491 -393 -480 0 
492 -171 -480 0 
493 494 0 
494 -495 496 0 
494 -496 495 0 
495 -195 417 0 
495 -417 195 0 
496 -497 0 
496 -500 0 
47 48 0 
497 -498 0 
497 -499 0 
498 -183 -405 0 
499 -405 -488 0 
500 -183 -488 0 
501 502 0 
502 -503 504 0 
502 -504 503 0 
503 -207 429 0 
503 -429 207 0 
504 -505 0 
504 -508 0 
505 -506 0 
505 -507 0 
506 -195 -417 0 
48 -49 0 
507 -417 -496 0 
508 -195 -496 0 
509 510 0 
510 -511 512 0 
510 -512 511 0 
511 -219 441 0 
511 -441 219 0 
512 -513 0 
512 -516 0 
513 -514 0 
513 -515 0 
514 -207 -429 0 
515 -429 -504 0 
516 -207 -504 0 
49 -7 43 0 
49 -43 7 0 
517 518 0 
518 -519 520 0 
518 -520 519 0 
519 -231 453 0 
519 -453 231 0 
520 -521 0 
520 -524 0 
521 -522 0 
521 -523 0 
522 -219 -441 0 
523 -441 -512 0 
524 -219 -512 0 
525 -369 0 
526 -275 -462 0 
50 -144 -779 0 
50 -51 -144 0 
50 51 -779 0 
527 -266 -525 0 
528 -529 -544 0 
528 -544 -566 0 
528 529 -566 0 
529 -530 -543 0 
530 -531 -542 0 
531 -532 -541 0 
532 -533 -540 0 
533 -534 -539 0 
534 -535 -538 0 
535 -536 -537 0 
536 -63 0 
51 -52 -132 0 
537 -69 0 
538 -77 0 
539 -89 0 
540 -101 0 
541 -113 0 
542 -125 0 
543 -137 0 
544 -259 -545 0 
544 -545 -564 0 
544 259 -564 0 
545 -271 -546 0 
546 -547 -555 0 
546 -555 -526 0 
546 547 -526 0 
52 -53 -120 0 
547 -548 -356 0 
548 -549 -344 0 
549 -550 -332 0 
550 -551 -320 0 
551 -552 -308 0 
552 -553 -296 0 
553 -554 -288 0 
554 -283 0 
555 -556 0 
556 -557 -517 0 
53 -54 -108 0 
557 -558 -509 0 
558 -559 -501 0 
559 -560 -493 0 
560 -561 -485 0 
561 -562 -477 0 
562 -563 -473 0 
563 -471 0 
564 -271 -565 0 
565 -547 -555 0 
566 -259 -567 0 
566 -567 -569 0 
566 259 -569 0 
54 -55 -96 0 
567 -271 -568 0 
568 -525 -526 0 
568 -547 -525 0 
568 547 -526 0 
569 -271 -570 0 
570 -547 -525 0 
571 -243 -572 0 
571 -572 -649 0 
571 243 -649 0 
572 -573 -574 0 
572 -574 -575 0 
572 573 -575 0 
573 -260 0 
574 -271 -526 0 
575 -266 -576 0 
575 -576 -574 0 
575 266 -574 0 
576 -271 -577 0 
576 -577 -648 0 
576 271 -648 0 
55 -56 -84 0 
577 -274 -526 0 
577 -578 -274 0 
577 578 -526 0 
578 -579 -639 0 
579 -580 -630 0 
580 -581 -621 0 
581 -582 -612 0 
582 -583 -603 0 
583 -584 -594 0 
584 -585 -589 0 
585 586 0 
586 -587 0 
56 -57 -72 0 
587 -285 588 0 
587 -588 285 0 
589 590 0 
590 -591 593 0 
590 -593 591 0 
591 -291 592 0 
591 -592 291 0 
593 -588 -285 0 
594 595 0 
595 -596 598 0 
595 -598 596 0 
596 -299 597 0 
596 -597 299 0 
57 -58 -64 0 
598 -599 0 
598 -602 0 
599 -600 0 
599 -601 0 
600 -592 -291 0 
601 -291 -593 0 
602 -592 -593 0 
603 604 0 
604 -605 607 0 
604 -607 605 0 
605 -311 606 0 
605 -606 311 0 
58 59 0 
607 -608 0 
607 -611 0 
608 -609 0 
608 -610 0 
609 -597 -299 0 
610 -299 -598 0 
611 -597 -598 0 
612 613 0 
613 -614 616 0 
613 -616 614 0 
614 -323 615 0 
614 -615 323 0 
616 -617 0 
616 -620 0 
59 -60 0 
617 -618 0 
617 -619 0 
618 -606 -311 0 
619 -311 -607 0 
620 -606 -607 0 
621 622 0 
622 -623 625 0 
622 -625 623 0 
623 -335 624 0 
623 -624 335 0 
625 -626 0 
625 -629 0 
626 -627 0 
626 -628 0 
60 -19 61 0 
60 -61 19 0 
627 -615 -323 0 
628 -323 -616 0 
629 -615 -616 0 
630 631 0 
631 -632 634 0 
631 -634 632 0 
632 -347 633 0 
632 -633 347 0 
634 -635 0 
634 -638 0 
635 -636 0 
635 -637 0 
636 -624 -335 0 
61 62 0 
637 -335 -625 0 
638 -624 -625 0 
639 640 0 
640 -641 643 0 
640 -643 641 0 
641 -359 642 0 
641 -642 359 0 
643 -644 0 
643 -647 0 
644 -645 0 
644 -646 0 
645 -633 -347 0 
646 -347 -634 0 
62 63 0 
647 -633 -634 0 
648 -578 -525 0 
649 -529 -650 0 
649 -650 -653 0 
649 529 -653 0 
650 -573 -651 0 
650 -651 -545 0 
650 573 -545 0 
651 -271 -652 0 
652 547 -526 0 
653 -573 -651 0 
653 -651 -567 0 
653 573 -567 0 
654 -241 -655 0 
654 -655 -699 0 
654 241 -699 0 
655 -529 -656 0 
655 -656 -680 0 
655 529 -680 0 
656 -259 -657 0 
656 -657 -679 0 
656 259 -679 0 
657 -266 -658 0 
657 -658 -675 0 
657 266 -675 0 
658 -271 -526 0 
658 -526 -659 0 
658 271 -659 0 
659 -275 -660 0 
660 661 -462 0 
661 -662 -674 0 
662 -663 -673 0 
663 -664 -672 0 
664 -665 -671 0 
665 -666 -670 0 
666 -667 -669 0 
64 65 0 
667 -563 -668 0 
668 -474 0 
669 -478 0 
670 -486 0 
671 -494 0 
672 -502 0 
673 -510 0 
674 -518 0 
675 -271 -676 0 
675 -676 -678 0 
675 271 -678 0 
676 -275 -677 0 
676 -677 -678 0 
676 275 -678 0 
65 -66 71 0 
65 -71 66 0 
677 -462 0 
677 -661 0 
677 661 -462 0 
678 -661 0 
679 266 -678 0 
680 -259 -681 0 
680 -681 -697 0 
680 259 -697 0 
681 -266 -682 0 
681 -682 -574 0 
681 266 -574 0 
682 -525 -526 0 
682 -683 -525 0 
682 683 -526 0 
683 -684 -696 0 
684 -685 -695 0 
685 -686 -694 0 
686 -687 -693 0 
66 -21 67 0 
66 -67 21 0 
687 -688 -692 0 
688 -689 -691 0 
689 -554 -690 0 
690 -289 0 
691 -297 0 
692 -309 0 
693 -321 0 
694 -333 0 
695 -345 0 
696 -357 0 
67 -68 70 0 
67 -70 68 0 
697 -266 -698 0 
698 -683 -525 0 
699 -529 -700 0 
699 -700 -705 0 
699 529 -705 0 
700 -573 -574 0 
700 -574 -701 0 
700 573 -701 0 
701 -266 -574 0 
701 -574 -702 0 
701 266 -702 0 
702 -271 -703 0 
702 -703 -704 0 
702 271 -704 0 
703 -578 -676 0 
703 -676 -526 0 
703 578 -526 0 
704 -578 -678 0 
705 -573 -574 0 
705 -574 -706 0 
705 573 -706 0 
706 -266 -707 0 
706 -707 -574 0 
706 266 -574 0 
68 69 0 
707 -271 -682 0 
707 -682 -698 0 
707 271 -698 0 
708 -709 -238 0 
709 -710 -770 0 
710 -711 -761 0 
711 -712 -752 0 
712 -713 -743 0 
713 -714 -734 0 
714 -715 -725 0 
715 -716 -720 0 
716 717 0 
717 -718 0 
718 -155 719 0 
718 -719 155 0 
720 721 0 
721 -722 724 0 
721 -724 722 0 
722 -161 723 0 
722 -723 161 0 
724 -719 -155 0 
725 726 0 
726 -727 729 0 
726 -729 727 0 
70 -62 0 
727 -169 728 0 
727 -728 169 0 
729 -730 0 
729 -733 0 
730 -731 0 
730 -732 0 
731 -723 -161 0 
732 -161 -724 0 
733 -723 -724 0 
734 735 0 
735 -736 738 0 
735 -738 736 0 
736 -181 737 0 
736 -737 181 0 
71 -19 -61 0 
738 -739 0 
738 -742 0 
739 -740 0 
739 -741 0 
740 -728 -169 0 
741 -169 -729 0 
742 -728 -729 0 
743 744 0 
744 -745 747 0 
744 -747 745 0 
745 -193 746 0 
745 -746 193 0 
72 73 0 
747 -748 0 
747 -751 0 
748 -749 0 
748 -750 0 
749 -737 -181 0 
750 -181 -738 0 
751 -737 -738 0 
752 753 0 
753 -754 756 0 
753 -756 754 0 
754 -205 755 0 
754 -755 205 0 
756 -757 0 
756 -760 0 
73 -74 79 0 
73 -79 74 0 
757 -758 0 
757 -759 0 
758 -746 -193 0 
759 -193 -747 0 
760 -746 -747 0 
761 762 0 
762 -763 765 0 
762 -765 763 0 
763 -217 764 0 
763 -764 217 0 
765 -766 0 
765 -769 0 
766 -767 0 
766 -768 0 
74 -23 75 0 
74 -75 23 0 
767 -755 -205 0 
768 -205 -756 0 
769 -755 -756 0 
770 771 0 
771 -772 774 0 
771 -774 772 0 
772 -229 773 0 
772 -773 229 0 
774 -775 0 
774 -778 0 
775 -776 0 
775 -777 0 
776 -764 -217 0 
75 -76 78 0 
75 -78 76 0 
777 -217 -765 0 
778 -764 -765 0 
779 -145 -238 0 
780 -51 -708 0 
781 -42 -779 0 
782 -783 -798 0 
782 -798 -820 0 
782 783 -820 0 
783 -784 -797 0 
784 -785 -796 0 
785 -786 -795 0 
786 -787 -794 0 
76 77 0 
787 -788 -793 0 
788 -789 -792 0 
789 -790 -791 0 
790 -19 0 
791 -21 0 
792 -23 0 
793 -25 0 
794 -27 0 
795 -29 0 
796 -31 0 
5 -10 -825 0 
5 -6 -10 0 
5 6 -825 0 
797 -33 0 
798 -35 -799 0 
798 -799 -818 0 
798 35 -818 0 
799 -47 -800 0 
800 -801 -809 0 
800 -809 -780 0 
800 801 -780 0 
801 -802 -132 0 
802 -803 -120 0 
803 -804 -108 0 
804 -805 -96 0 
805 -806 -84 0 
806 -807 -72 0 
78 -68 -70 0 
807 -808 -64 0 
808 -59 0 
809 -810 -238 0 
810 -811 -770 0 
811 -812 -761 0 
812 -813 -752 0 
813 -814 -743 0 
814 -815 -734 0 
815 -816 -725 0 
816 -817 -720 0 
79 -80 0 
79 -83 0 
817 -717 0 
818 -47 -819 0 
819 -801 -809 0 
820 -35 -821 0 
820 -821 -823 0 
820 35 -823 0 
821 -47 -822 0 
822 -50 -780 0 
822 -801 -50 0 
822 801 -780 0 
823 -47 -824 0 
824 -801 -779 0 
825 -783 -826 0 
825 -826 -850 0 
825 783 -850 0 
826 -35 -827 0 
826 -827 -849 0 
826 35 -849 0 
80 -81 0 
80 -82 0 
827 -42 -828 0 
827 -828 -845 0 
827 42 -845 0 
828 -47 -780 0 
828 -780 -829 0 
828 47 -829 0 
829 -51 -830 0 
830 831 -708 0 
831 -832 -844 0 
832 -833 -843 0 
833 -834 -842 0 
834 -835 -841 0 
835 -836 -840 0 
836 -837 -839 0 
81 -21 -67 0 
837 -817 -838 0 
838 -721 0 
839 -726 0 
840 -735 0 
841 -744 0 
842 -753 0 
843 -762 0 
844 -771 0 
845 -47 -846 0 
845 -846 -848 0 
845 47 -848 0 
846 -51 -847 0 
846 -847 -848 0 
846 51 -848 0 
82 -67 -71 0 
847 -238 -708 0 
847 -831 -238 0 
847 831 -708 0 
848 -831 -238 0 
849 42 -848 0 
850 -35 -851 0 
850 -851 -870 0 
850 35 -870 0 
851 -42 -852 0 
851 -852 -869 0 
851 42 -869 0 
852 -47 -853 0 
852 -853 -868 0 
852 47 -868 0 
853 -50 -780 0 
853 -854 -50 0 
853 854 -780 0 
854 -855 -867 0 
855 -856 -866 0 
856 -857 -865 0 
83 -21 -71 0 
857 -858 -864 0 
858 -859 -863 0 
859 -860 -862 0 
860 -808 -861 0 
861 -65 0 
862 -73 0 
863 -85 0 
864 -97 0 
865 -109 0 
866 -121 0 
84 85 0 
867 -133 0 
868 -779 -780 0 
868 -854 -779 0 
868 854 -780 0 
869 -47 -780 0 
870 -42 -871 0 
871 -854 -779 0 
872 -873 -955 0 
872 -6 -873 0 
872 6 -955 0 
873 -11 -874 0 
873 -874 -950 0 
873 11 -950 0 
874 -869 -876 0 
874 -875 -869 0 
874 875 -876 0 
875 -36 0 
876 -42 -877 0 
876 -877 -869 0 
876 42 -869 0 
85 -86 91 0 
85 -91 86 0 
877 -47 -878 0 
877 -878 -949 0 
877 47 -949 0 
878 -50 -780 0 
878 -879 -50 0 
878 879 -780 0 
879 -880 -940 0 
880 -881 -931 0 
881 -882 -922 0 
882 -883 -913 0 
883 -884 -904 0 
884 -885 -895 0 
885 -886 -890 0 
886 887 0 
86 -25 87 0 
86 -87 25 0 
887 -888 0 
888 -61 889 0 
888 -889 61 0 
890 891 0 
891 -892 894 0 
891 -894 892 0 
892 -67 893 0 
892 -893 67 0 
894 -889 -61 0 
895 896 0 
896 -897 899 0 
896 -899 897 0 
6 7 0 
87 -88 90 0 
87 -90 88 0 
897 -75 898 0 
897 -898 75 0 
899 -900 0 
899 -903 0 
900 -901 0 
900 -902 0 
901 -893 -67 0 
902 -67 -894 0 
903 -893 -894 0 
904 905 0 
905 -906 908 0 
905 -908 906 0 
906 -87 907 0 
906 -907 87 0 
88 89 0 
908 -909 0 
908 -912 0 
909 -910 0 
909 -911 0 
910 -898 -75 0 
911 -75 -899 0 
912 -898 -899 0 
913 914 0 
914 -915 917 0 
914 -917 915 0 
915 -99 916 0 
915 -916 99 0 
917 -918 0 
917 -921 0 
918 -919 0 
918 -920 0 
919 -907 -87 0 
920 -87 -908 0 
921 -907 -908 0 
922 923 0 
923 -924 926 0 
923 -926 924 0 
924 -111 925 0 
924 -925 111 0 
926 -927 0 
926 -930 0 
90 -76 -78 0 
927 -928 0 
927 -929 0 
928 -916 -99 0 
929 -99 -917 0 
930 -916 -917 0 
931 932 0 
932 -933 935 0 
932 -935 933 0 
933 -123 934 0 
933 -934 123 0 
935 -936 0 
935 -939 0 
936 -937 0 
936 -938 0 
91 -92 0 
91 -95 0 
937 -925 -111 0 
938 -111 -926 0 
939 -925 -926 0 
940 941 0 
941 -942 944 0 
941 -944 942 0 
942 -135 943 0 
942 -943 135 0 
944 -945 0 
944 -948 0 
945 -946 0 
945 -947 0 
946 -934 -123 0 
92 -93 0 
92 -94 0 
947 -123 -935 0 
948 -934 -935 0 
949 -879 -779 0 
950 -783 -951 0 
950 -951 -954 0 
950 783 -954 0 
951 -875 -952 0 
951 -952 -799 0 
951 875 -799 0 
952 -47 -953 0 
953 801 -780 0 
954 -875 -952 0 
954 -952 -821 0 
954 875 -821 0 
955 -783 -956 0 
955 -956 -961 0 
955 783 -961 0 
956 -869 -957 0 
956 -875 -869 0 
956 875 -957 0 
93 -23 -75 0 
957 -42 -869 0 
957 -869 -958 0 
957 42 -958 0 
958 -47 -959 0 
958 -959 -960 0 
958 47 -960 0 
959 -846 -780 0 
959 -879 -846 0 
959 879 -780 0 
960 -879 -848 0 
961 -869 -962 0 
961 -875 -869 0 
961 875 -962 0 
962 -42 -963 0 
962 -963 -869 0 
962 42 -869 0 
963 -47 -853 0 
963 -853 -871 0 
963 47 -871 0 
94 -75 -79 0 
95 -23 -79 0 
96 97 0 
